NAME : random_1
COMMENT : 40 random nodes
TYPE : TSP
DIMENSION : 40
EDGE_WEIGHT_TYPE : EUC_2D
NODE_COORD_SECTION
1 3785 -4599
2 6161 2089
3 2797 7363
4 -3134 -335
5 -2594 4564
6 -2933 1890
7 -6111 1960
8 6674 7032
9 5288 -2486
10 -303 -1397
11 6988 -4546
12 5965 4119
13 273 -3605
14 -5150 -598
15 -6138 -1782
16 3081 1122
17 6176 2065
18 -2153 -5656
19 -2471 -4690
20 3197 -5190
21 4944 -3061
22 -5021 2759
23 6700 -2161
24 -895 -6218
25 -5216 3978
26 -1547 -1734
27 -4855 -2557
28 -3390 -2026
29 6157 -2368
30 7137 1419
31 -1506 1580
32 5194 10
33 -1129 1099
34 -1881 1524
35 6627 1048
36 -4034 3189
37 4872 1236
38 1888 6921
39 6076 -3843
40 2667 -1906
EOF